c Optimised CNF encoding for 9x9 Sudoku
c Source: sudoku_9x9_17clue_05.txt
c Variables: 321  Clauses: 3127
p cnf 321 3127
1 2 3 4 0
5 6 7 0
8 9 10 11 12 0
13 14 15 16 17 18 0
19 20 21 22 23 24 0
25 26 27 28 29 0
30 31 32 33 0
34 35 36 0
37 38 39 40 41 0
42 43 44 45 0
46 47 48 49 0
50 51 52 53 0
54 55 56 57 58 59 0
60 61 62 63 0
64 65 66 67 0
68 69 70 71 72 0
73 74 75 76 0
77 78 79 80 81 0
82 83 84 85 0
86 87 88 0
89 90 91 92 0
93 94 95 96 97 98 0
99 100 101 102 0
103 104 105 106 0
107 108 109 110 111 0
112 113 114 115 0
116 117 118 119 0
120 121 122 123 0
124 125 126 127 0
128 129 130 0
131 132 133 134 0
135 136 137 138 0
139 140 141 142 0
143 144 145 146 147 0
148 149 150 0
151 152 153 154 0
155 156 157 158 0
159 160 161 162 163 0
164 165 166 167 168 0
169 170 171 172 173 0
174 175 176 177 0
178 179 180 181 182 183 0
184 185 186 187 0
188 189 190 191 192 193 0
194 195 196 197 198 199 0
200 201 202 203 0
204 205 206 207 208 209 0
210 211 212 213 214 215 0
216 217 218 219 220 221 222 0
223 224 225 226 227 228 0
229 230 231 232 233 234 0
235 236 237 238 239 240 241 242 0
243 244 245 246 247 248 249 0
250 251 252 253 254 255 0
256 257 258 259 260 261 262 0
263 264 265 266 267 268 0
269 270 271 272 273 274 0
275 276 277 278 279 280 281 0
282 283 284 285 286 287 0
288 289 290 291 292 293 0
294 295 296 297 298 299 300 301 0
302 303 304 305 306 307 308 0
309 310 311 312 313 314 0
315 316 317 318 319 320 321 0
-1 -2 0
-1 -3 0
-1 -4 0
-2 -3 0
-2 -4 0
-3 -4 0
-5 -6 0
-5 -7 0
-6 -7 0
-8 -9 0
-8 -10 0
-8 -11 0
-8 -12 0
-9 -10 0
-9 -11 0
-9 -12 0
-10 -11 0
-10 -12 0
-11 -12 0
-13 -14 0
-13 -15 0
-13 -16 0
-13 -17 0
-13 -18 0
-14 -15 0
-14 -16 0
-14 -17 0
-14 -18 0
-15 -16 0
-15 -17 0
-15 -18 0
-16 -17 0
-16 -18 0
-17 -18 0
-19 -20 0
-19 -21 0
-19 -22 0
-19 -23 0
-19 -24 0
-20 -21 0
-20 -22 0
-20 -23 0
-20 -24 0
-21 -22 0
-21 -23 0
-21 -24 0
-22 -23 0
-22 -24 0
-23 -24 0
-25 -26 0
-25 -27 0
-25 -28 0
-25 -29 0
-26 -27 0
-26 -28 0
-26 -29 0
-27 -28 0
-27 -29 0
-28 -29 0
-30 -31 0
-30 -32 0
-30 -33 0
-31 -32 0
-31 -33 0
-32 -33 0
-34 -35 0
-34 -36 0
-35 -36 0
-37 -38 0
-37 -39 0
-37 -40 0
-37 -41 0
-38 -39 0
-38 -40 0
-38 -41 0
-39 -40 0
-39 -41 0
-40 -41 0
-42 -43 0
-42 -44 0
-42 -45 0
-43 -44 0
-43 -45 0
-44 -45 0
-46 -47 0
-46 -48 0
-46 -49 0
-47 -48 0
-47 -49 0
-48 -49 0
-50 -51 0
-50 -52 0
-50 -53 0
-51 -52 0
-51 -53 0
-52 -53 0
-54 -55 0
-54 -56 0
-54 -57 0
-54 -58 0
-54 -59 0
-55 -56 0
-55 -57 0
-55 -58 0
-55 -59 0
-56 -57 0
-56 -58 0
-56 -59 0
-57 -58 0
-57 -59 0
-58 -59 0
-60 -61 0
-60 -62 0
-60 -63 0
-61 -62 0
-61 -63 0
-62 -63 0
-64 -65 0
-64 -66 0
-64 -67 0
-65 -66 0
-65 -67 0
-66 -67 0
-68 -69 0
-68 -70 0
-68 -71 0
-68 -72 0
-69 -70 0
-69 -71 0
-69 -72 0
-70 -71 0
-70 -72 0
-71 -72 0
-73 -74 0
-73 -75 0
-73 -76 0
-74 -75 0
-74 -76 0
-75 -76 0
-77 -78 0
-77 -79 0
-77 -80 0
-77 -81 0
-78 -79 0
-78 -80 0
-78 -81 0
-79 -80 0
-79 -81 0
-80 -81 0
-82 -83 0
-82 -84 0
-82 -85 0
-83 -84 0
-83 -85 0
-84 -85 0
-86 -87 0
-86 -88 0
-87 -88 0
-89 -90 0
-89 -91 0
-89 -92 0
-90 -91 0
-90 -92 0
-91 -92 0
-93 -94 0
-93 -95 0
-93 -96 0
-93 -97 0
-93 -98 0
-94 -95 0
-94 -96 0
-94 -97 0
-94 -98 0
-95 -96 0
-95 -97 0
-95 -98 0
-96 -97 0
-96 -98 0
-97 -98 0
-99 -100 0
-99 -101 0
-99 -102 0
-100 -101 0
-100 -102 0
-101 -102 0
-103 -104 0
-103 -105 0
-103 -106 0
-104 -105 0
-104 -106 0
-105 -106 0
-107 -108 0
-107 -109 0
-107 -110 0
-107 -111 0
-108 -109 0
-108 -110 0
-108 -111 0
-109 -110 0
-109 -111 0
-110 -111 0
-112 -113 0
-112 -114 0
-112 -115 0
-113 -114 0
-113 -115 0
-114 -115 0
-116 -117 0
-116 -118 0
-116 -119 0
-117 -118 0
-117 -119 0
-118 -119 0
-120 -121 0
-120 -122 0
-120 -123 0
-121 -122 0
-121 -123 0
-122 -123 0
-124 -125 0
-124 -126 0
-124 -127 0
-125 -126 0
-125 -127 0
-126 -127 0
-128 -129 0
-128 -130 0
-129 -130 0
-131 -132 0
-131 -133 0
-131 -134 0
-132 -133 0
-132 -134 0
-133 -134 0
-135 -136 0
-135 -137 0
-135 -138 0
-136 -137 0
-136 -138 0
-137 -138 0
-139 -140 0
-139 -141 0
-139 -142 0
-140 -141 0
-140 -142 0
-141 -142 0
-143 -144 0
-143 -145 0
-143 -146 0
-143 -147 0
-144 -145 0
-144 -146 0
-144 -147 0
-145 -146 0
-145 -147 0
-146 -147 0
-148 -149 0
-148 -150 0
-149 -150 0
-151 -152 0
-151 -153 0
-151 -154 0
-152 -153 0
-152 -154 0
-153 -154 0
-155 -156 0
-155 -157 0
-155 -158 0
-156 -157 0
-156 -158 0
-157 -158 0
-159 -160 0
-159 -161 0
-159 -162 0
-159 -163 0
-160 -161 0
-160 -162 0
-160 -163 0
-161 -162 0
-161 -163 0
-162 -163 0
-164 -165 0
-164 -166 0
-164 -167 0
-164 -168 0
-165 -166 0
-165 -167 0
-165 -168 0
-166 -167 0
-166 -168 0
-167 -168 0
-169 -170 0
-169 -171 0
-169 -172 0
-169 -173 0
-170 -171 0
-170 -172 0
-170 -173 0
-171 -172 0
-171 -173 0
-172 -173 0
-174 -175 0
-174 -176 0
-174 -177 0
-175 -176 0
-175 -177 0
-176 -177 0
-178 -179 0
-178 -180 0
-178 -181 0
-178 -182 0
-178 -183 0
-179 -180 0
-179 -181 0
-179 -182 0
-179 -183 0
-180 -181 0
-180 -182 0
-180 -183 0
-181 -182 0
-181 -183 0
-182 -183 0
-184 -185 0
-184 -186 0
-184 -187 0
-185 -186 0
-185 -187 0
-186 -187 0
-188 -189 0
-188 -190 0
-188 -191 0
-188 -192 0
-188 -193 0
-189 -190 0
-189 -191 0
-189 -192 0
-189 -193 0
-190 -191 0
-190 -192 0
-190 -193 0
-191 -192 0
-191 -193 0
-192 -193 0
-194 -195 0
-194 -196 0
-194 -197 0
-194 -198 0
-194 -199 0
-195 -196 0
-195 -197 0
-195 -198 0
-195 -199 0
-196 -197 0
-196 -198 0
-196 -199 0
-197 -198 0
-197 -199 0
-198 -199 0
-200 -201 0
-200 -202 0
-200 -203 0
-201 -202 0
-201 -203 0
-202 -203 0
-204 -205 0
-204 -206 0
-204 -207 0
-204 -208 0
-204 -209 0
-205 -206 0
-205 -207 0
-205 -208 0
-205 -209 0
-206 -207 0
-206 -208 0
-206 -209 0
-207 -208 0
-207 -209 0
-208 -209 0
-210 -211 0
-210 -212 0
-210 -213 0
-210 -214 0
-210 -215 0
-211 -212 0
-211 -213 0
-211 -214 0
-211 -215 0
-212 -213 0
-212 -214 0
-212 -215 0
-213 -214 0
-213 -215 0
-214 -215 0
-216 -217 0
-216 -218 0
-216 -219 0
-216 -220 0
-216 -221 0
-216 -222 0
-217 -218 0
-217 -219 0
-217 -220 0
-217 -221 0
-217 -222 0
-218 -219 0
-218 -220 0
-218 -221 0
-218 -222 0
-219 -220 0
-219 -221 0
-219 -222 0
-220 -221 0
-220 -222 0
-221 -222 0
-223 -224 0
-223 -225 0
-223 -226 0
-223 -227 0
-223 -228 0
-224 -225 0
-224 -226 0
-224 -227 0
-224 -228 0
-225 -226 0
-225 -227 0
-225 -228 0
-226 -227 0
-226 -228 0
-227 -228 0
-229 -230 0
-229 -231 0
-229 -232 0
-229 -233 0
-229 -234 0
-230 -231 0
-230 -232 0
-230 -233 0
-230 -234 0
-231 -232 0
-231 -233 0
-231 -234 0
-232 -233 0
-232 -234 0
-233 -234 0
-235 -236 0
-235 -237 0
-235 -238 0
-235 -239 0
-235 -240 0
-235 -241 0
-235 -242 0
-236 -237 0
-236 -238 0
-236 -239 0
-236 -240 0
-236 -241 0
-236 -242 0
-237 -238 0
-237 -239 0
-237 -240 0
-237 -241 0
-237 -242 0
-238 -239 0
-238 -240 0
-238 -241 0
-238 -242 0
-239 -240 0
-239 -241 0
-239 -242 0
-240 -241 0
-240 -242 0
-241 -242 0
-243 -244 0
-243 -245 0
-243 -246 0
-243 -247 0
-243 -248 0
-243 -249 0
-244 -245 0
-244 -246 0
-244 -247 0
-244 -248 0
-244 -249 0
-245 -246 0
-245 -247 0
-245 -248 0
-245 -249 0
-246 -247 0
-246 -248 0
-246 -249 0
-247 -248 0
-247 -249 0
-248 -249 0
-250 -251 0
-250 -252 0
-250 -253 0
-250 -254 0
-250 -255 0
-251 -252 0
-251 -253 0
-251 -254 0
-251 -255 0
-252 -253 0
-252 -254 0
-252 -255 0
-253 -254 0
-253 -255 0
-254 -255 0
-256 -257 0
-256 -258 0
-256 -259 0
-256 -260 0
-256 -261 0
-256 -262 0
-257 -258 0
-257 -259 0
-257 -260 0
-257 -261 0
-257 -262 0
-258 -259 0
-258 -260 0
-258 -261 0
-258 -262 0
-259 -260 0
-259 -261 0
-259 -262 0
-260 -261 0
-260 -262 0
-261 -262 0
-263 -264 0
-263 -265 0
-263 -266 0
-263 -267 0
-263 -268 0
-264 -265 0
-264 -266 0
-264 -267 0
-264 -268 0
-265 -266 0
-265 -267 0
-265 -268 0
-266 -267 0
-266 -268 0
-267 -268 0
-269 -270 0
-269 -271 0
-269 -272 0
-269 -273 0
-269 -274 0
-270 -271 0
-270 -272 0
-270 -273 0
-270 -274 0
-271 -272 0
-271 -273 0
-271 -274 0
-272 -273 0
-272 -274 0
-273 -274 0
-275 -276 0
-275 -277 0
-275 -278 0
-275 -279 0
-275 -280 0
-275 -281 0
-276 -277 0
-276 -278 0
-276 -279 0
-276 -280 0
-276 -281 0
-277 -278 0
-277 -279 0
-277 -280 0
-277 -281 0
-278 -279 0
-278 -280 0
-278 -281 0
-279 -280 0
-279 -281 0
-280 -281 0
-282 -283 0
-282 -284 0
-282 -285 0
-282 -286 0
-282 -287 0
-283 -284 0
-283 -285 0
-283 -286 0
-283 -287 0
-284 -285 0
-284 -286 0
-284 -287 0
-285 -286 0
-285 -287 0
-286 -287 0
-288 -289 0
-288 -290 0
-288 -291 0
-288 -292 0
-288 -293 0
-289 -290 0
-289 -291 0
-289 -292 0
-289 -293 0
-290 -291 0
-290 -292 0
-290 -293 0
-291 -292 0
-291 -293 0
-292 -293 0
-294 -295 0
-294 -296 0
-294 -297 0
-294 -298 0
-294 -299 0
-294 -300 0
-294 -301 0
-295 -296 0
-295 -297 0
-295 -298 0
-295 -299 0
-295 -300 0
-295 -301 0
-296 -297 0
-296 -298 0
-296 -299 0
-296 -300 0
-296 -301 0
-297 -298 0
-297 -299 0
-297 -300 0
-297 -301 0
-298 -299 0
-298 -300 0
-298 -301 0
-299 -300 0
-299 -301 0
-300 -301 0
-302 -303 0
-302 -304 0
-302 -305 0
-302 -306 0
-302 -307 0
-302 -308 0
-303 -304 0
-303 -305 0
-303 -306 0
-303 -307 0
-303 -308 0
-304 -305 0
-304 -306 0
-304 -307 0
-304 -308 0
-305 -306 0
-305 -307 0
-305 -308 0
-306 -307 0
-306 -308 0
-307 -308 0
-309 -310 0
-309 -311 0
-309 -312 0
-309 -313 0
-309 -314 0
-310 -311 0
-310 -312 0
-310 -313 0
-310 -314 0
-311 -312 0
-311 -313 0
-311 -314 0
-312 -313 0
-312 -314 0
-313 -314 0
-315 -316 0
-315 -317 0
-315 -318 0
-315 -319 0
-315 -320 0
-315 -321 0
-316 -317 0
-316 -318 0
-316 -319 0
-316 -320 0
-316 -321 0
-317 -318 0
-317 -319 0
-317 -320 0
-317 -321 0
-318 -319 0
-318 -320 0
-318 -321 0
-319 -320 0
-319 -321 0
-320 -321 0
1 19 25 30 0
2 5 8 13 0
6 9 14 20 26 31 0
3 10 15 21 27 0
16 22 28 32 0
11 17 23 33 0
4 7 12 18 24 29 0
37 54 60 0
34 38 55 61 0
35 39 42 46 50 56 62 0
47 0
40 43 48 51 57 0
44 52 58 63 0
36 41 45 49 53 59 0
64 68 77 0
65 69 82 86 0
70 73 78 83 87 0
66 71 74 79 84 0
75 80 88 0
67 72 76 81 85 0
99 107 112 116 0
89 93 108 117 0
90 94 103 109 113 118 0
95 100 104 0
96 110 114 119 0
91 97 101 105 0
92 98 102 106 111 115 0
120 124 135 0
121 125 131 136 139 0
128 132 137 140 0
122 141 0
126 129 133 0
123 127 130 134 138 142 0
159 164 169 0
143 148 151 155 160 165 170 0
156 161 166 171 0
144 149 172 0
145 152 157 162 0
146 153 167 173 0
147 150 154 158 163 168 0
174 178 188 194 200 0
175 179 184 189 195 0
176 180 185 190 196 201 0
181 186 191 197 202 0
177 182 192 198 203 0
183 187 193 199 0
204 216 223 235 243 250 256 0
205 210 217 229 236 244 257 0
206 211 218 230 237 245 251 258 0
212 219 224 231 238 246 252 259 0
207 213 253 260 0
225 232 239 247 254 0
208 220 226 240 248 255 261 0
214 221 227 233 241 249 262 0
209 215 222 228 234 242 0
263 275 282 294 302 309 315 0
264 269 276 288 295 303 316 0
265 270 277 289 296 304 310 317 0
271 278 283 290 297 305 311 318 0
266 272 312 319 0
284 291 298 306 313 0
267 279 285 299 307 314 320 0
273 280 286 292 300 308 321 0
268 274 281 287 293 301 0
-1 -19 0
-1 -25 0
-1 -30 0
-19 -25 0
-19 -30 0
-25 -30 0
-2 -5 0
-2 -8 0
-2 -13 0
-5 -8 0
-5 -13 0
-8 -13 0
-6 -9 0
-6 -14 0
-6 -20 0
-6 -26 0
-6 -31 0
-9 -14 0
-9 -20 0
-9 -26 0
-9 -31 0
-14 -20 0
-14 -26 0
-14 -31 0
-20 -26 0
-20 -31 0
-26 -31 0
-3 -10 0
-3 -15 0
-3 -21 0
-3 -27 0
-10 -15 0
-10 -21 0
-10 -27 0
-15 -21 0
-15 -27 0
-21 -27 0
-16 -22 0
-16 -28 0
-16 -32 0
-22 -28 0
-22 -32 0
-28 -32 0
-11 -17 0
-11 -23 0
-11 -33 0
-17 -23 0
-17 -33 0
-23 -33 0
-4 -7 0
-4 -12 0
-4 -18 0
-4 -24 0
-4 -29 0
-7 -12 0
-7 -18 0
-7 -24 0
-7 -29 0
-12 -18 0
-12 -24 0
-12 -29 0
-18 -24 0
-18 -29 0
-24 -29 0
-37 -54 0
-37 -60 0
-54 -60 0
-34 -38 0
-34 -55 0
-34 -61 0
-38 -55 0
-38 -61 0
-55 -61 0
-35 -39 0
-35 -42 0
-35 -46 0
-35 -50 0
-35 -56 0
-35 -62 0
-39 -42 0
-39 -46 0
-39 -50 0
-39 -56 0
-39 -62 0
-42 -46 0
-42 -50 0
-42 -56 0
-42 -62 0
-46 -50 0
-46 -56 0
-46 -62 0
-50 -56 0
-50 -62 0
-56 -62 0
-40 -43 0
-40 -48 0
-40 -51 0
-40 -57 0
-43 -48 0
-43 -51 0
-43 -57 0
-48 -51 0
-48 -57 0
-51 -57 0
-44 -52 0
-44 -58 0
-44 -63 0
-52 -58 0
-52 -63 0
-58 -63 0
-36 -41 0
-36 -45 0
-36 -49 0
-36 -53 0
-36 -59 0
-41 -45 0
-41 -49 0
-41 -53 0
-41 -59 0
-45 -49 0
-45 -53 0
-45 -59 0
-49 -53 0
-49 -59 0
-53 -59 0
-64 -68 0
-64 -77 0
-68 -77 0
-65 -69 0
-65 -82 0
-65 -86 0
-69 -82 0
-69 -86 0
-82 -86 0
-70 -73 0
-70 -78 0
-70 -83 0
-70 -87 0
-73 -78 0
-73 -83 0
-73 -87 0
-78 -83 0
-78 -87 0
-83 -87 0
-66 -71 0
-66 -74 0
-66 -79 0
-66 -84 0
-71 -74 0
-71 -79 0
-71 -84 0
-74 -79 0
-74 -84 0
-79 -84 0
-75 -80 0
-75 -88 0
-80 -88 0
-67 -72 0
-67 -76 0
-67 -81 0
-67 -85 0
-72 -76 0
-72 -81 0
-72 -85 0
-76 -81 0
-76 -85 0
-81 -85 0
-99 -107 0
-99 -112 0
-99 -116 0
-107 -112 0
-107 -116 0
-112 -116 0
-89 -93 0
-89 -108 0
-89 -117 0
-93 -108 0
-93 -117 0
-108 -117 0
-90 -94 0
-90 -103 0
-90 -109 0
-90 -113 0
-90 -118 0
-94 -103 0
-94 -109 0
-94 -113 0
-94 -118 0
-103 -109 0
-103 -113 0
-103 -118 0
-109 -113 0
-109 -118 0
-113 -118 0
-95 -100 0
-95 -104 0
-100 -104 0
-96 -110 0
-96 -114 0
-96 -119 0
-110 -114 0
-110 -119 0
-114 -119 0
-91 -97 0
-91 -101 0
-91 -105 0
-97 -101 0
-97 -105 0
-101 -105 0
-92 -98 0
-92 -102 0
-92 -106 0
-92 -111 0
-92 -115 0
-98 -102 0
-98 -106 0
-98 -111 0
-98 -115 0
-102 -106 0
-102 -111 0
-102 -115 0
-106 -111 0
-106 -115 0
-111 -115 0
-120 -124 0
-120 -135 0
-124 -135 0
-121 -125 0
-121 -131 0
-121 -136 0
-121 -139 0
-125 -131 0
-125 -136 0
-125 -139 0
-131 -136 0
-131 -139 0
-136 -139 0
-128 -132 0
-128 -137 0
-128 -140 0
-132 -137 0
-132 -140 0
-137 -140 0
-122 -141 0
-126 -129 0
-126 -133 0
-129 -133 0
-123 -127 0
-123 -130 0
-123 -134 0
-123 -138 0
-123 -142 0
-127 -130 0
-127 -134 0
-127 -138 0
-127 -142 0
-130 -134 0
-130 -138 0
-130 -142 0
-134 -138 0
-134 -142 0
-138 -142 0
-159 -164 0
-159 -169 0
-164 -169 0
-143 -148 0
-143 -151 0
-143 -155 0
-143 -160 0
-143 -165 0
-143 -170 0
-148 -151 0
-148 -155 0
-148 -160 0
-148 -165 0
-148 -170 0
-151 -155 0
-151 -160 0
-151 -165 0
-151 -170 0
-155 -160 0
-155 -165 0
-155 -170 0
-160 -165 0
-160 -170 0
-165 -170 0
-156 -161 0
-156 -166 0
-156 -171 0
-161 -166 0
-161 -171 0
-166 -171 0
-144 -149 0
-144 -172 0
-149 -172 0
-145 -152 0
-145 -157 0
-145 -162 0
-152 -157 0
-152 -162 0
-157 -162 0
-146 -153 0
-146 -167 0
-146 -173 0
-153 -167 0
-153 -173 0
-167 -173 0
-147 -150 0
-147 -154 0
-147 -158 0
-147 -163 0
-147 -168 0
-150 -154 0
-150 -158 0
-150 -163 0
-150 -168 0
-154 -158 0
-154 -163 0
-154 -168 0
-158 -163 0
-158 -168 0
-163 -168 0
-174 -178 0
-174 -188 0
-174 -194 0
-174 -200 0
-178 -188 0
-178 -194 0
-178 -200 0
-188 -194 0
-188 -200 0
-194 -200 0
-175 -179 0
-175 -184 0
-175 -189 0
-175 -195 0
-179 -184 0
-179 -189 0
-179 -195 0
-184 -189 0
-184 -195 0
-189 -195 0
-176 -180 0
-176 -185 0
-176 -190 0
-176 -196 0
-176 -201 0
-180 -185 0
-180 -190 0
-180 -196 0
-180 -201 0
-185 -190 0
-185 -196 0
-185 -201 0
-190 -196 0
-190 -201 0
-196 -201 0
-181 -186 0
-181 -191 0
-181 -197 0
-181 -202 0
-186 -191 0
-186 -197 0
-186 -202 0
-191 -197 0
-191 -202 0
-197 -202 0
-177 -182 0
-177 -192 0
-177 -198 0
-177 -203 0
-182 -192 0
-182 -198 0
-182 -203 0
-192 -198 0
-192 -203 0
-198 -203 0
-183 -187 0
-183 -193 0
-183 -199 0
-187 -193 0
-187 -199 0
-193 -199 0
-204 -216 0
-204 -223 0
-204 -235 0
-204 -243 0
-204 -250 0
-204 -256 0
-216 -223 0
-216 -235 0
-216 -243 0
-216 -250 0
-216 -256 0
-223 -235 0
-223 -243 0
-223 -250 0
-223 -256 0
-235 -243 0
-235 -250 0
-235 -256 0
-243 -250 0
-243 -256 0
-250 -256 0
-205 -210 0
-205 -217 0
-205 -229 0
-205 -236 0
-205 -244 0
-205 -257 0
-210 -217 0
-210 -229 0
-210 -236 0
-210 -244 0
-210 -257 0
-217 -229 0
-217 -236 0
-217 -244 0
-217 -257 0
-229 -236 0
-229 -244 0
-229 -257 0
-236 -244 0
-236 -257 0
-244 -257 0
-206 -211 0
-206 -218 0
-206 -230 0
-206 -237 0
-206 -245 0
-206 -251 0
-206 -258 0
-211 -218 0
-211 -230 0
-211 -237 0
-211 -245 0
-211 -251 0
-211 -258 0
-218 -230 0
-218 -237 0
-218 -245 0
-218 -251 0
-218 -258 0
-230 -237 0
-230 -245 0
-230 -251 0
-230 -258 0
-237 -245 0
-237 -251 0
-237 -258 0
-245 -251 0
-245 -258 0
-251 -258 0
-212 -219 0
-212 -224 0
-212 -231 0
-212 -238 0
-212 -246 0
-212 -252 0
-212 -259 0
-219 -224 0
-219 -231 0
-219 -238 0
-219 -246 0
-219 -252 0
-219 -259 0
-224 -231 0
-224 -238 0
-224 -246 0
-224 -252 0
-224 -259 0
-231 -238 0
-231 -246 0
-231 -252 0
-231 -259 0
-238 -246 0
-238 -252 0
-238 -259 0
-246 -252 0
-246 -259 0
-252 -259 0
-207 -213 0
-207 -253 0
-207 -260 0
-213 -253 0
-213 -260 0
-253 -260 0
-225 -232 0
-225 -239 0
-225 -247 0
-225 -254 0
-232 -239 0
-232 -247 0
-232 -254 0
-239 -247 0
-239 -254 0
-247 -254 0
-208 -220 0
-208 -226 0
-208 -240 0
-208 -248 0
-208 -255 0
-208 -261 0
-220 -226 0
-220 -240 0
-220 -248 0
-220 -255 0
-220 -261 0
-226 -240 0
-226 -248 0
-226 -255 0
-226 -261 0
-240 -248 0
-240 -255 0
-240 -261 0
-248 -255 0
-248 -261 0
-255 -261 0
-214 -221 0
-214 -227 0
-214 -233 0
-214 -241 0
-214 -249 0
-214 -262 0
-221 -227 0
-221 -233 0
-221 -241 0
-221 -249 0
-221 -262 0
-227 -233 0
-227 -241 0
-227 -249 0
-227 -262 0
-233 -241 0
-233 -249 0
-233 -262 0
-241 -249 0
-241 -262 0
-249 -262 0
-209 -215 0
-209 -222 0
-209 -228 0
-209 -234 0
-209 -242 0
-215 -222 0
-215 -228 0
-215 -234 0
-215 -242 0
-222 -228 0
-222 -234 0
-222 -242 0
-228 -234 0
-228 -242 0
-234 -242 0
-263 -275 0
-263 -282 0
-263 -294 0
-263 -302 0
-263 -309 0
-263 -315 0
-275 -282 0
-275 -294 0
-275 -302 0
-275 -309 0
-275 -315 0
-282 -294 0
-282 -302 0
-282 -309 0
-282 -315 0
-294 -302 0
-294 -309 0
-294 -315 0
-302 -309 0
-302 -315 0
-309 -315 0
-264 -269 0
-264 -276 0
-264 -288 0
-264 -295 0
-264 -303 0
-264 -316 0
-269 -276 0
-269 -288 0
-269 -295 0
-269 -303 0
-269 -316 0
-276 -288 0
-276 -295 0
-276 -303 0
-276 -316 0
-288 -295 0
-288 -303 0
-288 -316 0
-295 -303 0
-295 -316 0
-303 -316 0
-265 -270 0
-265 -277 0
-265 -289 0
-265 -296 0
-265 -304 0
-265 -310 0
-265 -317 0
-270 -277 0
-270 -289 0
-270 -296 0
-270 -304 0
-270 -310 0
-270 -317 0
-277 -289 0
-277 -296 0
-277 -304 0
-277 -310 0
-277 -317 0
-289 -296 0
-289 -304 0
-289 -310 0
-289 -317 0
-296 -304 0
-296 -310 0
-296 -317 0
-304 -310 0
-304 -317 0
-310 -317 0
-271 -278 0
-271 -283 0
-271 -290 0
-271 -297 0
-271 -305 0
-271 -311 0
-271 -318 0
-278 -283 0
-278 -290 0
-278 -297 0
-278 -305 0
-278 -311 0
-278 -318 0
-283 -290 0
-283 -297 0
-283 -305 0
-283 -311 0
-283 -318 0
-290 -297 0
-290 -305 0
-290 -311 0
-290 -318 0
-297 -305 0
-297 -311 0
-297 -318 0
-305 -311 0
-305 -318 0
-311 -318 0
-266 -272 0
-266 -312 0
-266 -319 0
-272 -312 0
-272 -319 0
-312 -319 0
-284 -291 0
-284 -298 0
-284 -306 0
-284 -313 0
-291 -298 0
-291 -306 0
-291 -313 0
-298 -306 0
-298 -313 0
-306 -313 0
-267 -279 0
-267 -285 0
-267 -299 0
-267 -307 0
-267 -314 0
-267 -320 0
-279 -285 0
-279 -299 0
-279 -307 0
-279 -314 0
-279 -320 0
-285 -299 0
-285 -307 0
-285 -314 0
-285 -320 0
-299 -307 0
-299 -314 0
-299 -320 0
-307 -314 0
-307 -320 0
-314 -320 0
-273 -280 0
-273 -286 0
-273 -292 0
-273 -300 0
-273 -308 0
-273 -321 0
-280 -286 0
-280 -292 0
-280 -300 0
-280 -308 0
-280 -321 0
-286 -292 0
-286 -300 0
-286 -308 0
-286 -321 0
-292 -300 0
-292 -308 0
-292 -321 0
-300 -308 0
-300 -321 0
-308 -321 0
-268 -274 0
-268 -281 0
-268 -287 0
-268 -293 0
-268 -301 0
-274 -281 0
-274 -287 0
-274 -293 0
-274 -301 0
-281 -287 0
-281 -293 0
-281 -301 0
-287 -293 0
-287 -301 0
-293 -301 0
1 174 204 263 0
2 64 120 175 205 264 0
65 121 143 176 206 265 0
122 144 207 266 0
3 66 145 0
146 177 208 267 0
4 67 123 147 209 268 0
5 89 210 269 0
34 90 148 211 270 0
6 35 212 271 0
149 213 272 0
91 214 273 0
7 36 92 150 215 274 0
37 178 216 275 0
68 93 124 179 217 276 0
38 69 94 125 151 180 218 277 0
39 70 181 219 278 0
40 71 95 152 0
96 153 182 220 279 0
97 126 183 221 280 0
41 72 98 127 154 222 281 0
99 223 282 0
42 73 128 224 283 0
43 74 100 225 284 0
44 226 285 0
75 101 129 227 286 0
45 76 102 130 228 287 0
8 184 229 288 0
103 155 185 230 289 0
9 46 156 186 231 290 0
47 0
10 48 104 157 232 291 0
11 105 187 233 292 0
12 49 106 158 234 293 0
159 188 235 294 0
13 77 189 236 295 0
131 160 190 237 296 0
14 50 78 132 161 191 238 297 0
15 51 79 162 239 298 0
16 52 192 240 299 0
17 80 133 193 241 300 0
18 53 81 134 163 242 301 0
19 54 107 164 194 243 302 0
108 135 195 244 303 0
55 109 136 165 196 245 304 0
20 56 137 166 197 246 305 0
21 57 247 306 0
22 58 110 167 198 248 307 0
23 199 249 308 0
24 59 111 138 168 0
25 112 200 250 309 0
82 113 139 201 251 310 0
26 83 140 202 252 311 0
141 253 312 0
27 84 254 313 0
28 114 203 255 314 0
29 85 115 142 0
30 60 116 169 256 315 0
117 257 316 0
61 86 118 170 258 317 0
31 62 87 171 259 318 0
172 260 319 0
32 63 119 173 261 320 0
33 88 262 321 0
-1 -174 0
-1 -204 0
-1 -263 0
-174 -204 0
-174 -263 0
-204 -263 0
-2 -64 0
-2 -120 0
-2 -175 0
-2 -205 0
-2 -264 0
-64 -120 0
-64 -175 0
-64 -205 0
-64 -264 0
-120 -175 0
-120 -205 0
-120 -264 0
-175 -205 0
-175 -264 0
-205 -264 0
-65 -121 0
-65 -143 0
-65 -176 0
-65 -206 0
-65 -265 0
-121 -143 0
-121 -176 0
-121 -206 0
-121 -265 0
-143 -176 0
-143 -206 0
-143 -265 0
-176 -206 0
-176 -265 0
-206 -265 0
-122 -144 0
-122 -207 0
-122 -266 0
-144 -207 0
-144 -266 0
-207 -266 0
-3 -66 0
-3 -145 0
-66 -145 0
-146 -177 0
-146 -208 0
-146 -267 0
-177 -208 0
-177 -267 0
-208 -267 0
-4 -67 0
-4 -123 0
-4 -147 0
-4 -209 0
-4 -268 0
-67 -123 0
-67 -147 0
-67 -209 0
-67 -268 0
-123 -147 0
-123 -209 0
-123 -268 0
-147 -209 0
-147 -268 0
-209 -268 0
-5 -89 0
-5 -210 0
-5 -269 0
-89 -210 0
-89 -269 0
-210 -269 0
-34 -90 0
-34 -148 0
-34 -211 0
-34 -270 0
-90 -148 0
-90 -211 0
-90 -270 0
-148 -211 0
-148 -270 0
-211 -270 0
-6 -35 0
-6 -212 0
-6 -271 0
-35 -212 0
-35 -271 0
-212 -271 0
-149 -213 0
-149 -272 0
-213 -272 0
-91 -214 0
-91 -273 0
-214 -273 0
-7 -36 0
-7 -92 0
-7 -150 0
-7 -215 0
-7 -274 0
-36 -92 0
-36 -150 0
-36 -215 0
-36 -274 0
-92 -150 0
-92 -215 0
-92 -274 0
-150 -215 0
-150 -274 0
-215 -274 0
-37 -178 0
-37 -216 0
-37 -275 0
-178 -216 0
-178 -275 0
-216 -275 0
-68 -93 0
-68 -124 0
-68 -179 0
-68 -217 0
-68 -276 0
-93 -124 0
-93 -179 0
-93 -217 0
-93 -276 0
-124 -179 0
-124 -217 0
-124 -276 0
-179 -217 0
-179 -276 0
-217 -276 0
-38 -69 0
-38 -94 0
-38 -125 0
-38 -151 0
-38 -180 0
-38 -218 0
-38 -277 0
-69 -94 0
-69 -125 0
-69 -151 0
-69 -180 0
-69 -218 0
-69 -277 0
-94 -125 0
-94 -151 0
-94 -180 0
-94 -218 0
-94 -277 0
-125 -151 0
-125 -180 0
-125 -218 0
-125 -277 0
-151 -180 0
-151 -218 0
-151 -277 0
-180 -218 0
-180 -277 0
-218 -277 0
-39 -70 0
-39 -181 0
-39 -219 0
-39 -278 0
-70 -181 0
-70 -219 0
-70 -278 0
-181 -219 0
-181 -278 0
-219 -278 0
-40 -71 0
-40 -95 0
-40 -152 0
-71 -95 0
-71 -152 0
-95 -152 0
-96 -153 0
-96 -182 0
-96 -220 0
-96 -279 0
-153 -182 0
-153 -220 0
-153 -279 0
-182 -220 0
-182 -279 0
-220 -279 0
-97 -126 0
-97 -183 0
-97 -221 0
-97 -280 0
-126 -183 0
-126 -221 0
-126 -280 0
-183 -221 0
-183 -280 0
-221 -280 0
-41 -72 0
-41 -98 0
-41 -127 0
-41 -154 0
-41 -222 0
-41 -281 0
-72 -98 0
-72 -127 0
-72 -154 0
-72 -222 0
-72 -281 0
-98 -127 0
-98 -154 0
-98 -222 0
-98 -281 0
-127 -154 0
-127 -222 0
-127 -281 0
-154 -222 0
-154 -281 0
-222 -281 0
-99 -223 0
-99 -282 0
-223 -282 0
-42 -73 0
-42 -128 0
-42 -224 0
-42 -283 0
-73 -128 0
-73 -224 0
-73 -283 0
-128 -224 0
-128 -283 0
-224 -283 0
-43 -74 0
-43 -100 0
-43 -225 0
-43 -284 0
-74 -100 0
-74 -225 0
-74 -284 0
-100 -225 0
-100 -284 0
-225 -284 0
-44 -226 0
-44 -285 0
-226 -285 0
-75 -101 0
-75 -129 0
-75 -227 0
-75 -286 0
-101 -129 0
-101 -227 0
-101 -286 0
-129 -227 0
-129 -286 0
-227 -286 0
-45 -76 0
-45 -102 0
-45 -130 0
-45 -228 0
-45 -287 0
-76 -102 0
-76 -130 0
-76 -228 0
-76 -287 0
-102 -130 0
-102 -228 0
-102 -287 0
-130 -228 0
-130 -287 0
-228 -287 0
-8 -184 0
-8 -229 0
-8 -288 0
-184 -229 0
-184 -288 0
-229 -288 0
-103 -155 0
-103 -185 0
-103 -230 0
-103 -289 0
-155 -185 0
-155 -230 0
-155 -289 0
-185 -230 0
-185 -289 0
-230 -289 0
-9 -46 0
-9 -156 0
-9 -186 0
-9 -231 0
-9 -290 0
-46 -156 0
-46 -186 0
-46 -231 0
-46 -290 0
-156 -186 0
-156 -231 0
-156 -290 0
-186 -231 0
-186 -290 0
-231 -290 0
-10 -48 0
-10 -104 0
-10 -157 0
-10 -232 0
-10 -291 0
-48 -104 0
-48 -157 0
-48 -232 0
-48 -291 0
-104 -157 0
-104 -232 0
-104 -291 0
-157 -232 0
-157 -291 0
-232 -291 0
-11 -105 0
-11 -187 0
-11 -233 0
-11 -292 0
-105 -187 0
-105 -233 0
-105 -292 0
-187 -233 0
-187 -292 0
-233 -292 0
-12 -49 0
-12 -106 0
-12 -158 0
-12 -234 0
-12 -293 0
-49 -106 0
-49 -158 0
-49 -234 0
-49 -293 0
-106 -158 0
-106 -234 0
-106 -293 0
-158 -234 0
-158 -293 0
-234 -293 0
-159 -188 0
-159 -235 0
-159 -294 0
-188 -235 0
-188 -294 0
-235 -294 0
-13 -77 0
-13 -189 0
-13 -236 0
-13 -295 0
-77 -189 0
-77 -236 0
-77 -295 0
-189 -236 0
-189 -295 0
-236 -295 0
-131 -160 0
-131 -190 0
-131 -237 0
-131 -296 0
-160 -190 0
-160 -237 0
-160 -296 0
-190 -237 0
-190 -296 0
-237 -296 0
-14 -50 0
-14 -78 0
-14 -132 0
-14 -161 0
-14 -191 0
-14 -238 0
-14 -297 0
-50 -78 0
-50 -132 0
-50 -161 0
-50 -191 0
-50 -238 0
-50 -297 0
-78 -132 0
-78 -161 0
-78 -191 0
-78 -238 0
-78 -297 0
-132 -161 0
-132 -191 0
-132 -238 0
-132 -297 0
-161 -191 0
-161 -238 0
-161 -297 0
-191 -238 0
-191 -297 0
-238 -297 0
-15 -51 0
-15 -79 0
-15 -162 0
-15 -239 0
-15 -298 0
-51 -79 0
-51 -162 0
-51 -239 0
-51 -298 0
-79 -162 0
-79 -239 0
-79 -298 0
-162 -239 0
-162 -298 0
-239 -298 0
-16 -52 0
-16 -192 0
-16 -240 0
-16 -299 0
-52 -192 0
-52 -240 0
-52 -299 0
-192 -240 0
-192 -299 0
-240 -299 0
-17 -80 0
-17 -133 0
-17 -193 0
-17 -241 0
-17 -300 0
-80 -133 0
-80 -193 0
-80 -241 0
-80 -300 0
-133 -193 0
-133 -241 0
-133 -300 0
-193 -241 0
-193 -300 0
-241 -300 0
-18 -53 0
-18 -81 0
-18 -134 0
-18 -163 0
-18 -242 0
-18 -301 0
-53 -81 0
-53 -134 0
-53 -163 0
-53 -242 0
-53 -301 0
-81 -134 0
-81 -163 0
-81 -242 0
-81 -301 0
-134 -163 0
-134 -242 0
-134 -301 0
-163 -242 0
-163 -301 0
-242 -301 0
-19 -54 0
-19 -107 0
-19 -164 0
-19 -194 0
-19 -243 0
-19 -302 0
-54 -107 0
-54 -164 0
-54 -194 0
-54 -243 0
-54 -302 0
-107 -164 0
-107 -194 0
-107 -243 0
-107 -302 0
-164 -194 0
-164 -243 0
-164 -302 0
-194 -243 0
-194 -302 0
-243 -302 0
-108 -135 0
-108 -195 0
-108 -244 0
-108 -303 0
-135 -195 0
-135 -244 0
-135 -303 0
-195 -244 0
-195 -303 0
-244 -303 0
-55 -109 0
-55 -136 0
-55 -165 0
-55 -196 0
-55 -245 0
-55 -304 0
-109 -136 0
-109 -165 0
-109 -196 0
-109 -245 0
-109 -304 0
-136 -165 0
-136 -196 0
-136 -245 0
-136 -304 0
-165 -196 0
-165 -245 0
-165 -304 0
-196 -245 0
-196 -304 0
-245 -304 0
-20 -56 0
-20 -137 0
-20 -166 0
-20 -197 0
-20 -246 0
-20 -305 0
-56 -137 0
-56 -166 0
-56 -197 0
-56 -246 0
-56 -305 0
-137 -166 0
-137 -197 0
-137 -246 0
-137 -305 0
-166 -197 0
-166 -246 0
-166 -305 0
-197 -246 0
-197 -305 0
-246 -305 0
-21 -57 0
-21 -247 0
-21 -306 0
-57 -247 0
-57 -306 0
-247 -306 0
-22 -58 0
-22 -110 0
-22 -167 0
-22 -198 0
-22 -248 0
-22 -307 0
-58 -110 0
-58 -167 0
-58 -198 0
-58 -248 0
-58 -307 0
-110 -167 0
-110 -198 0
-110 -248 0
-110 -307 0
-167 -198 0
-167 -248 0
-167 -307 0
-198 -248 0
-198 -307 0
-248 -307 0
-23 -199 0
-23 -249 0
-23 -308 0
-199 -249 0
-199 -308 0
-249 -308 0
-24 -59 0
-24 -111 0
-24 -138 0
-24 -168 0
-59 -111 0
-59 -138 0
-59 -168 0
-111 -138 0
-111 -168 0
-138 -168 0
-25 -112 0
-25 -200 0
-25 -250 0
-25 -309 0
-112 -200 0
-112 -250 0
-112 -309 0
-200 -250 0
-200 -309 0
-250 -309 0
-82 -113 0
-82 -139 0
-82 -201 0
-82 -251 0
-82 -310 0
-113 -139 0
-113 -201 0
-113 -251 0
-113 -310 0
-139 -201 0
-139 -251 0
-139 -310 0
-201 -251 0
-201 -310 0
-251 -310 0
-26 -83 0
-26 -140 0
-26 -202 0
-26 -252 0
-26 -311 0
-83 -140 0
-83 -202 0
-83 -252 0
-83 -311 0
-140 -202 0
-140 -252 0
-140 -311 0
-202 -252 0
-202 -311 0
-252 -311 0
-141 -253 0
-141 -312 0
-253 -312 0
-27 -84 0
-27 -254 0
-27 -313 0
-84 -254 0
-84 -313 0
-254 -313 0
-28 -114 0
-28 -203 0
-28 -255 0
-28 -314 0
-114 -203 0
-114 -255 0
-114 -314 0
-203 -255 0
-203 -314 0
-255 -314 0
-29 -85 0
-29 -115 0
-29 -142 0
-85 -115 0
-85 -142 0
-115 -142 0
-30 -60 0
-30 -116 0
-30 -169 0
-30 -256 0
-30 -315 0
-60 -116 0
-60 -169 0
-60 -256 0
-60 -315 0
-116 -169 0
-116 -256 0
-116 -315 0
-169 -256 0
-169 -315 0
-256 -315 0
-117 -257 0
-117 -316 0
-257 -316 0
-61 -86 0
-61 -118 0
-61 -170 0
-61 -258 0
-61 -317 0
-86 -118 0
-86 -170 0
-86 -258 0
-86 -317 0
-118 -170 0
-118 -258 0
-118 -317 0
-170 -258 0
-170 -317 0
-258 -317 0
-31 -62 0
-31 -87 0
-31 -171 0
-31 -259 0
-31 -318 0
-62 -87 0
-62 -171 0
-62 -259 0
-62 -318 0
-87 -171 0
-87 -259 0
-87 -318 0
-171 -259 0
-171 -318 0
-259 -318 0
-172 -260 0
-172 -319 0
-260 -319 0
-32 -63 0
-32 -119 0
-32 -173 0
-32 -261 0
-32 -320 0
-63 -119 0
-63 -173 0
-63 -261 0
-63 -320 0
-119 -173 0
-119 -261 0
-119 -320 0
-173 -261 0
-173 -320 0
-261 -320 0
-33 -88 0
-33 -262 0
-33 -321 0
-88 -262 0
-88 -321 0
-262 -321 0
1 37 0
2 5 64 68 0
34 38 65 69 0
6 35 39 70 0
3 40 66 71 0
4 7 36 41 67 72 0
8 13 77 0
9 14 42 46 50 73 78 0
47 0
10 15 43 48 51 74 79 0
16 44 52 0
11 17 75 80 0
12 18 45 49 53 76 81 0
19 25 30 54 60 0
55 61 82 86 0
20 26 31 56 62 83 87 0
21 27 57 84 0
22 28 32 58 63 0
23 33 88 0
24 29 59 85 0
89 93 120 124 0
90 94 121 125 143 148 151 0
122 144 149 0
95 145 152 0
96 146 153 0
91 97 126 0
92 98 123 127 147 150 154 0
99 159 0
103 131 155 160 0
128 132 156 161 0
100 104 157 162 0
101 105 129 133 0
102 106 130 134 158 163 0
107 112 116 164 169 0
108 117 135 0
109 113 118 136 139 165 170 0
137 140 166 171 0
141 172 0
110 114 119 167 173 0
111 115 138 142 168 0
174 178 204 216 263 275 0
175 179 205 210 217 264 269 276 0
176 180 206 211 218 265 270 277 0
181 212 219 271 278 0
207 213 266 272 0
177 182 208 220 267 279 0
183 214 221 273 280 0
209 215 222 268 274 281 0
188 223 235 282 294 0
184 189 229 236 288 295 0
185 190 230 237 289 296 0
186 191 224 231 238 283 290 297 0
225 232 239 284 291 298 0
192 226 240 285 299 0
187 193 227 233 241 286 292 300 0
228 234 242 287 293 301 0
194 200 243 250 256 302 309 315 0
195 244 257 303 316 0
196 201 245 251 258 304 310 317 0
197 202 246 252 259 305 311 318 0
253 260 312 319 0
247 254 306 313 0
198 203 248 255 261 307 314 320 0
199 249 262 308 321 0
-1 -37 0
-2 -5 0
-2 -64 0
-2 -68 0
-5 -64 0
-5 -68 0
-64 -68 0
-34 -38 0
-34 -65 0
-34 -69 0
-38 -65 0
-38 -69 0
-65 -69 0
-6 -35 0
-6 -39 0
-6 -70 0
-35 -39 0
-35 -70 0
-39 -70 0
-3 -40 0
-3 -66 0
-3 -71 0
-40 -66 0
-40 -71 0
-66 -71 0
-4 -7 0
-4 -36 0
-4 -41 0
-4 -67 0
-4 -72 0
-7 -36 0
-7 -41 0
-7 -67 0
-7 -72 0
-36 -41 0
-36 -67 0
-36 -72 0
-41 -67 0
-41 -72 0
-67 -72 0
-8 -13 0
-8 -77 0
-13 -77 0
-9 -14 0
-9 -42 0
-9 -46 0
-9 -50 0
-9 -73 0
-9 -78 0
-14 -42 0
-14 -46 0
-14 -50 0
-14 -73 0
-14 -78 0
-42 -46 0
-42 -50 0
-42 -73 0
-42 -78 0
-46 -50 0
-46 -73 0
-46 -78 0
-50 -73 0
-50 -78 0
-73 -78 0
-10 -15 0
-10 -43 0
-10 -48 0
-10 -51 0
-10 -74 0
-10 -79 0
-15 -43 0
-15 -48 0
-15 -51 0
-15 -74 0
-15 -79 0
-43 -48 0
-43 -51 0
-43 -74 0
-43 -79 0
-48 -51 0
-48 -74 0
-48 -79 0
-51 -74 0
-51 -79 0
-74 -79 0
-16 -44 0
-16 -52 0
-44 -52 0
-11 -17 0
-11 -75 0
-11 -80 0
-17 -75 0
-17 -80 0
-75 -80 0
-12 -18 0
-12 -45 0
-12 -49 0
-12 -53 0
-12 -76 0
-12 -81 0
-18 -45 0
-18 -49 0
-18 -53 0
-18 -76 0
-18 -81 0
-45 -49 0
-45 -53 0
-45 -76 0
-45 -81 0
-49 -53 0
-49 -76 0
-49 -81 0
-53 -76 0
-53 -81 0
-76 -81 0
-19 -25 0
-19 -30 0
-19 -54 0
-19 -60 0
-25 -30 0
-25 -54 0
-25 -60 0
-30 -54 0
-30 -60 0
-54 -60 0
-55 -61 0
-55 -82 0
-55 -86 0
-61 -82 0
-61 -86 0
-82 -86 0
-20 -26 0
-20 -31 0
-20 -56 0
-20 -62 0
-20 -83 0
-20 -87 0
-26 -31 0
-26 -56 0
-26 -62 0
-26 -83 0
-26 -87 0
-31 -56 0
-31 -62 0
-31 -83 0
-31 -87 0
-56 -62 0
-56 -83 0
-56 -87 0
-62 -83 0
-62 -87 0
-83 -87 0
-21 -27 0
-21 -57 0
-21 -84 0
-27 -57 0
-27 -84 0
-57 -84 0
-22 -28 0
-22 -32 0
-22 -58 0
-22 -63 0
-28 -32 0
-28 -58 0
-28 -63 0
-32 -58 0
-32 -63 0
-58 -63 0
-23 -33 0
-23 -88 0
-33 -88 0
-24 -29 0
-24 -59 0
-24 -85 0
-29 -59 0
-29 -85 0
-59 -85 0
-89 -93 0
-89 -120 0
-89 -124 0
-93 -120 0
-93 -124 0
-120 -124 0
-90 -94 0
-90 -121 0
-90 -125 0
-90 -143 0
-90 -148 0
-90 -151 0
-94 -121 0
-94 -125 0
-94 -143 0
-94 -148 0
-94 -151 0
-121 -125 0
-121 -143 0
-121 -148 0
-121 -151 0
-125 -143 0
-125 -148 0
-125 -151 0
-143 -148 0
-143 -151 0
-148 -151 0
-122 -144 0
-122 -149 0
-144 -149 0
-95 -145 0
-95 -152 0
-145 -152 0
-96 -146 0
-96 -153 0
-146 -153 0
-91 -97 0
-91 -126 0
-97 -126 0
-92 -98 0
-92 -123 0
-92 -127 0
-92 -147 0
-92 -150 0
-92 -154 0
-98 -123 0
-98 -127 0
-98 -147 0
-98 -150 0
-98 -154 0
-123 -127 0
-123 -147 0
-123 -150 0
-123 -154 0
-127 -147 0
-127 -150 0
-127 -154 0
-147 -150 0
-147 -154 0
-150 -154 0
-99 -159 0
-103 -131 0
-103 -155 0
-103 -160 0
-131 -155 0
-131 -160 0
-155 -160 0
-128 -132 0
-128 -156 0
-128 -161 0
-132 -156 0
-132 -161 0
-156 -161 0
-100 -104 0
-100 -157 0
-100 -162 0
-104 -157 0
-104 -162 0
-157 -162 0
-101 -105 0
-101 -129 0
-101 -133 0
-105 -129 0
-105 -133 0
-129 -133 0
-102 -106 0
-102 -130 0
-102 -134 0
-102 -158 0
-102 -163 0
-106 -130 0
-106 -134 0
-106 -158 0
-106 -163 0
-130 -134 0
-130 -158 0
-130 -163 0
-134 -158 0
-134 -163 0
-158 -163 0
-107 -112 0
-107 -116 0
-107 -164 0
-107 -169 0
-112 -116 0
-112 -164 0
-112 -169 0
-116 -164 0
-116 -169 0
-164 -169 0
-108 -117 0
-108 -135 0
-117 -135 0
-109 -113 0
-109 -118 0
-109 -136 0
-109 -139 0
-109 -165 0
-109 -170 0
-113 -118 0
-113 -136 0
-113 -139 0
-113 -165 0
-113 -170 0
-118 -136 0
-118 -139 0
-118 -165 0
-118 -170 0
-136 -139 0
-136 -165 0
-136 -170 0
-139 -165 0
-139 -170 0
-165 -170 0
-137 -140 0
-137 -166 0
-137 -171 0
-140 -166 0
-140 -171 0
-166 -171 0
-141 -172 0
-110 -114 0
-110 -119 0
-110 -167 0
-110 -173 0
-114 -119 0
-114 -167 0
-114 -173 0
-119 -167 0
-119 -173 0
-167 -173 0
-111 -115 0
-111 -138 0
-111 -142 0
-111 -168 0
-115 -138 0
-115 -142 0
-115 -168 0
-138 -142 0
-138 -168 0
-142 -168 0
-174 -178 0
-174 -204 0
-174 -216 0
-174 -263 0
-174 -275 0
-178 -204 0
-178 -216 0
-178 -263 0
-178 -275 0
-204 -216 0
-204 -263 0
-204 -275 0
-216 -263 0
-216 -275 0
-263 -275 0
-175 -179 0
-175 -205 0
-175 -210 0
-175 -217 0
-175 -264 0
-175 -269 0
-175 -276 0
-179 -205 0
-179 -210 0
-179 -217 0
-179 -264 0
-179 -269 0
-179 -276 0
-205 -210 0
-205 -217 0
-205 -264 0
-205 -269 0
-205 -276 0
-210 -217 0
-210 -264 0
-210 -269 0
-210 -276 0
-217 -264 0
-217 -269 0
-217 -276 0
-264 -269 0
-264 -276 0
-269 -276 0
-176 -180 0
-176 -206 0
-176 -211 0
-176 -218 0
-176 -265 0
-176 -270 0
-176 -277 0
-180 -206 0
-180 -211 0
-180 -218 0
-180 -265 0
-180 -270 0
-180 -277 0
-206 -211 0
-206 -218 0
-206 -265 0
-206 -270 0
-206 -277 0
-211 -218 0
-211 -265 0
-211 -270 0
-211 -277 0
-218 -265 0
-218 -270 0
-218 -277 0
-265 -270 0
-265 -277 0
-270 -277 0
-181 -212 0
-181 -219 0
-181 -271 0
-181 -278 0
-212 -219 0
-212 -271 0
-212 -278 0
-219 -271 0
-219 -278 0
-271 -278 0
-207 -213 0
-207 -266 0
-207 -272 0
-213 -266 0
-213 -272 0
-266 -272 0
-177 -182 0
-177 -208 0
-177 -220 0
-177 -267 0
-177 -279 0
-182 -208 0
-182 -220 0
-182 -267 0
-182 -279 0
-208 -220 0
-208 -267 0
-208 -279 0
-220 -267 0
-220 -279 0
-267 -279 0
-183 -214 0
-183 -221 0
-183 -273 0
-183 -280 0
-214 -221 0
-214 -273 0
-214 -280 0
-221 -273 0
-221 -280 0
-273 -280 0
-209 -215 0
-209 -222 0
-209 -268 0
-209 -274 0
-209 -281 0
-215 -222 0
-215 -268 0
-215 -274 0
-215 -281 0
-222 -268 0
-222 -274 0
-222 -281 0
-268 -274 0
-268 -281 0
-274 -281 0
-188 -223 0
-188 -235 0
-188 -282 0
-188 -294 0
-223 -235 0
-223 -282 0
-223 -294 0
-235 -282 0
-235 -294 0
-282 -294 0
-184 -189 0
-184 -229 0
-184 -236 0
-184 -288 0
-184 -295 0
-189 -229 0
-189 -236 0
-189 -288 0
-189 -295 0
-229 -236 0
-229 -288 0
-229 -295 0
-236 -288 0
-236 -295 0
-288 -295 0
-185 -190 0
-185 -230 0
-185 -237 0
-185 -289 0
-185 -296 0
-190 -230 0
-190 -237 0
-190 -289 0
-190 -296 0
-230 -237 0
-230 -289 0
-230 -296 0
-237 -289 0
-237 -296 0
-289 -296 0
-186 -191 0
-186 -224 0
-186 -231 0
-186 -238 0
-186 -283 0
-186 -290 0
-186 -297 0
-191 -224 0
-191 -231 0
-191 -238 0
-191 -283 0
-191 -290 0
-191 -297 0
-224 -231 0
-224 -238 0
-224 -283 0
-224 -290 0
-224 -297 0
-231 -238 0
-231 -283 0
-231 -290 0
-231 -297 0
-238 -283 0
-238 -290 0
-238 -297 0
-283 -290 0
-283 -297 0
-290 -297 0
-225 -232 0
-225 -239 0
-225 -284 0
-225 -291 0
-225 -298 0
-232 -239 0
-232 -284 0
-232 -291 0
-232 -298 0
-239 -284 0
-239 -291 0
-239 -298 0
-284 -291 0
-284 -298 0
-291 -298 0
-192 -226 0
-192 -240 0
-192 -285 0
-192 -299 0
-226 -240 0
-226 -285 0
-226 -299 0
-240 -285 0
-240 -299 0
-285 -299 0
-187 -193 0
-187 -227 0
-187 -233 0
-187 -241 0
-187 -286 0
-187 -292 0
-187 -300 0
-193 -227 0
-193 -233 0
-193 -241 0
-193 -286 0
-193 -292 0
-193 -300 0
-227 -233 0
-227 -241 0
-227 -286 0
-227 -292 0
-227 -300 0
-233 -241 0
-233 -286 0
-233 -292 0
-233 -300 0
-241 -286 0
-241 -292 0
-241 -300 0
-286 -292 0
-286 -300 0
-292 -300 0
-228 -234 0
-228 -242 0
-228 -287 0
-228 -293 0
-228 -301 0
-234 -242 0
-234 -287 0
-234 -293 0
-234 -301 0
-242 -287 0
-242 -293 0
-242 -301 0
-287 -293 0
-287 -301 0
-293 -301 0
-194 -200 0
-194 -243 0
-194 -250 0
-194 -256 0
-194 -302 0
-194 -309 0
-194 -315 0
-200 -243 0
-200 -250 0
-200 -256 0
-200 -302 0
-200 -309 0
-200 -315 0
-243 -250 0
-243 -256 0
-243 -302 0
-243 -309 0
-243 -315 0
-250 -256 0
-250 -302 0
-250 -309 0
-250 -315 0
-256 -302 0
-256 -309 0
-256 -315 0
-302 -309 0
-302 -315 0
-309 -315 0
-195 -244 0
-195 -257 0
-195 -303 0
-195 -316 0
-244 -257 0
-244 -303 0
-244 -316 0
-257 -303 0
-257 -316 0
-303 -316 0
-196 -201 0
-196 -245 0
-196 -251 0
-196 -258 0
-196 -304 0
-196 -310 0
-196 -317 0
-201 -245 0
-201 -251 0
-201 -258 0
-201 -304 0
-201 -310 0
-201 -317 0
-245 -251 0
-245 -258 0
-245 -304 0
-245 -310 0
-245 -317 0
-251 -258 0
-251 -304 0
-251 -310 0
-251 -317 0
-258 -304 0
-258 -310 0
-258 -317 0
-304 -310 0
-304 -317 0
-310 -317 0
-197 -202 0
-197 -246 0
-197 -252 0
-197 -259 0
-197 -305 0
-197 -311 0
-197 -318 0
-202 -246 0
-202 -252 0
-202 -259 0
-202 -305 0
-202 -311 0
-202 -318 0
-246 -252 0
-246 -259 0
-246 -305 0
-246 -311 0
-246 -318 0
-252 -259 0
-252 -305 0
-252 -311 0
-252 -318 0
-259 -305 0
-259 -311 0
-259 -318 0
-305 -311 0
-305 -318 0
-311 -318 0
-253 -260 0
-253 -312 0
-253 -319 0
-260 -312 0
-260 -319 0
-312 -319 0
-247 -254 0
-247 -306 0
-247 -313 0
-254 -306 0
-254 -313 0
-306 -313 0
-198 -203 0
-198 -248 0
-198 -255 0
-198 -261 0
-198 -307 0
-198 -314 0
-198 -320 0
-203 -248 0
-203 -255 0
-203 -261 0
-203 -307 0
-203 -314 0
-203 -320 0
-248 -255 0
-248 -261 0
-248 -307 0
-248 -314 0
-248 -320 0
-255 -261 0
-255 -307 0
-255 -314 0
-255 -320 0
-261 -307 0
-261 -314 0
-261 -320 0
-307 -314 0
-307 -320 0
-314 -320 0
-199 -249 0
-199 -262 0
-199 -308 0
-199 -321 0
-249 -262 0
-249 -308 0
-249 -321 0
-262 -308 0
-262 -321 0
-308 -321 0
